NAME 
ROWS
 N  OBJ
 L  R0      
 L  R1      
 L  R2      
 E  R3      
 E  R4      
 E  R5      
 E  R6      
 E  R7      
 E  R8      
 E  R9      
 E  R10     
 E  R11     
 E  R12     
COLUMNS
    MARKER    'MARKER'                 'INTORG'
    I0(7)     OBJ       -87
    I0(7)     R0        -178
    I0(7)     R1        61
    I0(7)     R2        -151
    I0(7)     R3        3
    I0(7)     R5        8
    I0(7)     R6        17
    I0(7)     R12       1
    I1(7)     OBJ       -172
    I1(7)     R0        77
    I1(7)     R1        -120
    I1(7)     R2        -168
    I1(7)     R4        15
    I1(7)     R5        4
    I1(7)     R6        4
    I1(7)     R12       1
    I2(7)     OBJ       -144
    I2(7)     R0        118
    I2(7)     R1        109
    I2(7)     R2        16
    I2(7)     R3        12
    I2(7)     R5        3
    I2(7)     R6        18
    I2(7)     R12       1
    I3(5)     OBJ       93
    I3(5)     R0        13
    I3(5)     R1        11
    I3(5)     R2        -15
    I3(5)     R5        11
    I3(5)     R12       1
    MARKER    'MARKER'                 'INTEND'
    C4(6)     OBJ       8
    C4(6)     R0        -1
    C4(6)     R1        4
    C4(6)     R5        8
    C4(6)     R7        11
    C4(6)     R9        6
    C4(6)     R10       14
    C5(7)     OBJ       -7
    C5(7)     R0        -6
    C5(7)     R2        9
    C5(7)     R4        11
    C5(7)     R6        8
    C5(7)     R7        12
    C5(7)     R8        6
    C5(7)     R9        12
    C6(9)     OBJ       3
    C6(9)     R0        -10
    C6(9)     R1        3
    C6(9)     R2        -3
    C6(9)     R3        11
    C6(9)     R6        1
    C6(9)     R8        18
    C6(9)     R9        19
    C6(9)     R10       12
    C6(9)     R11       19
    C7(5)     OBJ       6
    C7(5)     R0        6
    C7(5)     R1        -10
    C7(5)     R2        -5
    C7(5)     R8        19
    C7(5)     R10       17
    C8(8)     OBJ       -10
    C8(8)     R0        -3
    C8(8)     R1        5
    C8(8)     R2        9
    C8(8)     R3        2
    C8(8)     R4        18
    C8(8)     R5        2
    C8(8)     R7        -1
    C8(8)     R10       18
    C9(6)     OBJ       6
    C9(6)     R1        6
    C9(6)     R2        -3
    C9(6)     R3        12
    C9(6)     R5        10
    C9(6)     R6        16
    C9(6)     R11       19
    C10(1)    R3        1
    C11(1)    R4        1
    C12(1)    R5        1
    C13(1)    R6        1
    C14(1)    R7        1
    C15(1)    R8        1
    C16(1)    R9        1
    C17(1)    R10       1
    C18(1)    R11       1
    C19(1)    R12       1
RHS
    RHS1      R0        5.0272727272727273e+01
    RHS1      R1        -120
    RHS1      R2        -1.2790909090909091e+02
    RHS1      R3        54
    RHS1      R4        64
    RHS1      R5        94
    RHS1      R6        58
    RHS1      R7        55
    RHS1      R8        62
    RHS1      R9        55
    RHS1      R10       84
    RHS1      R11       88
    RHS1      R12       1
BOUNDS
 UP BND1      I0(7)     1
 UP BND1      I1(7)     1
 UP BND1      I2(7)     1
 UP BND1      I3(5)     1
ENDATA
